263 3422
4 8 12 20 72 76 95 106 120 125 132 145 147 153 161 173 175 179 189 191 192 204 216 219 232 234 240 256 
40 52 53 74 87 138 144 166 180 183 187 199 202 236 244 248 251 253 

1 7 10 12 20 21 22 23 28 31 36 38 40 41 43 44 45 46 47 49 50 52 53 58 59 60 61 62 63 75 76 77 78 80 82 84 87 89 91 100 101 103 107 113 121 126 127 129 134 137 138 145 146 147 148 150 155 159 160 162 165 171 172 177 179 180 181 183 189 193 194 196 197 199 203 205 207 208 209 211 213 214 215 218 219 221 222 223 225 226 228 229 231 232 234 238 239 240 241 243 244 247 248 250 253 263 
112 130 237 246 

4 13 21 22 36 38 40 42 44 52 53 58 60 76 78 82 84 87 100 107 113 129 137 138 143 144 145 148 150 155 160 165 171 180 181 183 187 189 196 199 205 209 213 214 215 218 221 222 226 228 231 232 244 248 250 253 
1 12 20 72 95 120 125 132 145 147 161 173 175 179 191 192 204 219 234 240 256 
11 34 35 97 104 105 115 128 136 139 169 
4 36 38 41 43 44 45 46 59 62 76 82 84 87 89 91 100 101 103 113 121 126 134 146 160 162 180 181 189 194 197 205 208 209 218 221 222 226 228 229 231 238 243 248 250 
9 34 35 69 97 104 115 123 128 136 139 169 
1 4 8 20 38 72 76 95 106 120 125 132 145 147 161 173 175 179 189 191 192 204 216 219 232 234 240 256 
7 40 52 64 78 87 107 137 138 143 160 165 180 181 187 196 199 215 232 248 250 253 
39 65 109 186 217 257 
24 32 51 54 57 68 70 79 81 83 90 94 102 108 117 118 119 122 140 141 151 156 157 158 163 164 170 198 200 233 235 245 254 259 260 261 

33 66 85 111 184 206 212 258 
152 201 
133 180 248 
1 4 8 12 72 95 106 120 125 132 145 147 153 161 173 175 179 189 191 204 216 219 234 240 256 
4 7 22 38 60 76 78 82 107 145 155 160 165 171 180 187 189 196 213 215 218 226 228 232 250 
4 7 21 23 31 38 44 46 49 59 60 61 62 63 73 76 78 80 91 101 145 148 150 155 160 165 171 180 189 194 199 205 208 209 214 218 221 222 224 226 228 248 250 
4 22 25 31 38 44 49 61 63 73 76 80 92 132 160 171 189 209 218 220 224 232 
15 32 51 54 57 68 70 79 81 83 90 94 102 108 117 118 119 122 140 141 151 156 157 158 163 164 170 198 200 233 235 245 254 259 260 261 
23 31 61 63 73 80 218 220 224 

29 99 110 135 188 227 
4 36 38 41 43 44 45 46 50 59 62 76 77 82 84 89 91 100 103 113 121 126 134 146 159 172 177 189 193 197 205 208 209 221 226 228 229 231 238 247 263 
27 99 110 135 188 227 
185 
4 22 23 25 38 44 61 63 73 76 80 92 121 132 160 171 189 209 218 220 224 232 255 
15 24 51 54 57 68 70 79 81 83 90 94 102 108 111 117 118 119 122 140 141 151 156 157 158 163 164 170 198 200 233 235 245 254 259 260 261 
17 66 83 85 111 151 184 206 212 258 
9 11 35 69 97 104 105 115 128 136 139 169 
9 11 34 69 97 104 105 115 123 128 139 169 
4 7 10 28 38 41 43 44 45 46 49 50 59 62 76 77 82 84 89 91 100 103 113 121 126 146 160 162 172 177 180 181 189 193 194 197 199 205 208 209 213 221 222 225 226 228 229 231 238 243 247 248 250 

4 7 10 12 21 22 23 28 31 36 40 41 43 44 45 46 47 49 50 52 53 58 59 60 62 63 64 76 77 78 80 82 84 87 89 91 92 100 101 103 107 113 121 126 129 134 137 138 145 146 148 150 155 159 160 162 165 171 172 177 180 181 187 189 193 194 196 197 199 203 205 208 209 213 214 215 218 221 222 223 224 226 228 229 231 232 234 238 240 241 243 247 248 250 253 263 
14 65 109 217 257 
2 4 7 13 38 43 45 52 53 74 78 82 87 107 137 138 143 144 160 165 180 181 183 187 196 199 205 214 215 232 236 244 248 250 253 
4 10 28 36 38 43 44 45 46 50 59 62 76 77 82 84 89 91 100 101 103 113 121 126 134 159 160 162 172 177 180 189 193 205 208 209 218 221 222 226 228 229 231 238 247 248 250 263 
7 52 53 64 87 137 138 143 160 180 181 187 199 236 248 250 253 
4 10 28 36 38 40 41 45 46 47 49 50 52 59 62 76 77 82 84 87 91 100 101 113 121 126 134 138 146 160 165 172 177 180 181 189 193 194 197 205 208 209 213 214 221 222 223 226 228 229 231 232 238 239 241 243 247 248 250 
4 7 10 22 23 28 31 36 38 41 46 49 50 52 59 61 62 76 82 84 91 100 101 113 121 126 134 138 146 160 162 171 172 177 180 181 189 193 194 197 199 203 208 209 213 218 221 222 224 226 228 229 231 232 238 243 248 250 263 
4 10 28 36 38 40 41 43 46 47 49 50 52 59 62 76 77 82 84 87 91 100 101 113 121 126 134 138 146 160 165 172 177 180 181 189 193 194 197 205 208 209 213 214 221 222 223 226 228 229 231 232 238 239 241 243 247 248 250 
4 10 22 28 36 38 41 43 44 45 50 59 62 76 77 82 84 89 91 100 101 103 113 121 126 134 146 159 160 162 165 172 177 180 181 189 193 194 197 205 208 209 213 218 221 222 226 228 229 231 232 238 243 247 248 250 263 
4 38 43 45 49 59 61 76 82 160 189 205 209 211 213 218 226 250 

4 22 23 36 38 43 44 45 47 59 76 82 160 171 189 205 209 211 213 218 221 223 224 226 232 
4 28 36 38 41 43 44 45 46 59 62 76 77 82 84 89 91 100 103 113 121 126 146 159 172 177 189 193 197 205 208 209 221 222 226 228 229 231 238 247 263 
15 24 32 54 57 68 70 79 81 83 90 94 102 108 117 118 119 122 140 141 151 156 157 158 163 164 170 198 200 233 235 245 254 259 260 261 
2 4 7 13 38 40 42 43 44 45 53 58 59 62 64 76 78 82 87 100 107 134 137 138 143 144 148 150 160 165 180 181 183 187 189 196 199 202 205 215 226 236 244 248 250 253 
2 4 7 38 40 42 52 64 76 78 87 107 137 138 143 144 148 160 165 180 181 183 187 189 196 199 202 205 215 236 244 248 250 253 
15 24 32 51 57 68 70 79 81 83 90 94 102 108 117 118 119 122 140 141 151 156 157 158 163 164 170 198 200 233 235 245 254 259 260 261 
195 
83 90 102 118 119 156 158 163 164 233 235 254 259 260 261 
15 24 32 51 54 68 70 79 81 83 90 94 102 108 111 117 118 119 122 140 141 151 156 157 158 163 164 170 198 200 233 235 245 254 259 260 261 
4 7 38 52 76 78 82 91 107 138 148 150 160 165 180 181 189 196 199 209 215 248 250 253 
4 10 22 28 36 38 41 43 44 45 46 47 49 50 52 62 76 77 82 84 89 91 100 101 103 113 121 126 134 138 145 146 148 159 160 162 165 171 172 177 180 181 189 193 194 197 199 205 208 209 213 218 221 222 223 225 226 228 229 231 232 238 243 247 248 250 263 
4 7 21 22 38 76 78 82 145 148 155 160 171 180 189 226 228 248 
4 22 23 25 31 44 47 63 73 76 80 92 171 189 218 220 224 255 
4 10 22 28 36 38 41 43 44 45 46 50 52 59 76 82 84 89 91 100 101 103 113 121 126 134 138 146 159 162 172 177 180 181 189 193 194 197 205 208 209 221 222 226 228 229 231 238 243 247 248 250 263 
4 22 23 25 31 38 61 73 76 80 92 132 160 171 189 209 218 220 224 232 255 
13 38 42 52 53 87 137 138 143 160 165 180 181 199 248 250 253 
14 39 109 186 217 257 
17 33 85 111 184 206 212 258 
241 
15 24 32 51 54 57 70 79 81 83 90 94 102 108 117 118 119 122 140 141 151 156 157 158 163 164 170 198 200 233 235 245 254 259 260 261 
11 34 35 97 104 105 115 128 136 139 169 
15 24 32 51 54 57 68 71 79 81 83 90 94 102 108 117 118 119 122 140 141 151 156 157 158 163 164 170 198 200 233 235 245 254 259 260 261 
70 81 122 151 245 
1 8 12 20 95 120 125 132 145 147 161 173 175 179 191 219 234 240 256 
22 23 25 31 61 63 80 160 171 218 220 224 
2 40 98 144 166 183 202 236 244 251 253 
4 213 
1 4 7 10 12 21 22 23 28 31 36 38 41 43 44 45 46 47 49 50 52 53 58 59 60 61 62 63 77 78 80 82 84 87 89 91 100 101 103 107 113 121 126 127 132 134 137 138 145 146 147 148 150 155 159 160 162 165 171 172 177 179 180 181 187 189 191 193 194 196 197 199 203 205 208 209 211 213 214 215 218 219 221 222 224 226 228 229 231 232 234 237 238 239 240 243 247 248 250 253 263 
4 28 36 38 41 43 45 46 50 59 76 82 84 89 91 100 103 113 121 126 159 172 177 189 193 205 208 209 221 226 228 229 231 238 247 263 
4 7 13 21 22 38 40 52 53 58 60 76 82 87 91 107 137 138 143 144 160 165 180 181 183 187 189 196 199 209 213 214 215 226 232 248 250 253 
15 24 32 51 54 57 68 70 81 83 90 94 102 108 111 117 118 119 122 140 141 151 156 157 158 163 164 170 198 200 233 235 245 254 259 260 261 
4 22 23 25 31 38 61 63 73 76 92 160 171 189 218 220 224 255 
15 24 32 51 54 57 68 70 71 79 83 90 94 102 108 117 118 119 122 140 141 151 156 157 158 163 164 170 198 200 233 235 245 254 259 260 261 
4 7 10 21 28 36 38 40 41 43 44 45 46 47 49 50 52 58 59 60 62 76 77 78 84 89 91 100 101 103 107 113 121 126 132 134 137 138 146 148 150 159 160 162 165 171 172 177 180 181 187 189 193 194 196 197 199 205 208 209 213 214 215 221 222 223 226 228 229 231 232 237 238 241 243 247 248 250 263 
15 24 32 33 51 54 56 57 68 70 79 81 90 94 102 108 111 117 118 119 122 140 141 151 156 157 158 163 164 170 198 200 233 235 245 254 259 260 261 
4 7 10 28 36 38 41 43 44 45 46 50 59 62 76 77 82 89 91 100 101 103 113 121 126 134 137 143 146 159 162 165 172 177 180 181 189 193 194 197 205 208 209 213 221 222 226 228 229 231 232 238 241 243 247 248 249 263 
17 33 66 111 184 206 212 258 
124 154 207 
2 4 7 10 13 38 40 42 43 45 52 53 64 76 78 91 107 134 137 138 143 144 160 165 180 181 183 187 189 196 199 202 205 215 226 236 248 250 253 
241 
4 10 28 36 38 41 46 50 59 62 76 77 82 84 91 100 103 113 121 126 134 145 159 162 172 177 181 189 193 194 205 209 221 226 228 229 231 238 247 250 263 
15 24 32 51 54 56 57 68 70 79 81 83 94 102 108 117 118 119 122 140 141 151 156 157 158 163 164 170 198 200 233 235 245 254 259 260 261 
4 10 22 28 36 38 41 43 44 45 46 50 58 59 62 76 77 78 82 84 87 89 100 101 103 113 121 126 134 137 138 146 159 160 162 165 172 177 180 181 189 193 194 197 205 208 209 213 221 222 226 228 229 231 232 238 243 247 248 250 263 
23 31 38 61 63 80 171 218 220 224 232 255 

15 24 32 51 54 57 68 70 79 81 83 90 102 108 111 117 118 119 122 140 141 151 156 157 158 163 164 170 198 200 233 235 245 254 259 260 261 
1 8 12 20 72 106 120 125 132 145 147 161 173 175 179 191 204 219 232 234 240 256 
230 
9 11 34 35 69 104 105 115 128 136 139 169 
74 144 166 183 252 
27 29 110 135 188 227 
4 7 10 28 36 38 41 43 44 45 46 50 52 59 62 76 77 82 84 89 91 101 103 113 121 126 134 138 146 159 160 162 172 177 180 181 189 193 194 197 203 205 208 209 213 218 221 222 225 226 228 229 231 238 243 247 248 250 263 
4 10 22 38 41 43 44 45 46 59 62 76 82 84 91 100 113 134 189 194 205 208 209 213 214 221 222 226 228 229 231 238 263 
15 24 32 51 54 56 57 68 70 79 81 83 90 94 108 111 117 118 119 122 140 141 151 156 157 158 163 164 170 198 200 233 235 245 254 259 260 261 
4 10 28 36 38 41 46 50 59 62 76 77 82 84 89 91 100 113 121 126 134 145 159 162 172 177 181 189 193 205 209 221 226 228 229 231 238 247 250 263 
9 11 34 35 69 97 105 115 128 136 139 169 
9 34 35 69 97 104 136 139 169 
1 12 20 95 120 132 145 147 153 161 173 179 191 192 204 216 219 234 240 256 
4 7 13 21 38 40 52 53 58 76 78 82 87 137 138 143 160 165 180 181 187 189 196 199 205 209 214 215 221 232 248 250 253 
15 24 32 51 54 57 68 70 79 81 83 90 94 102 117 118 119 122 140 141 151 156 157 158 163 164 170 198 200 233 235 245 254 259 260 261 
14 39 65 217 257 
27 29 99 135 188 227 
17 32 33 57 66 79 83 85 94 102 118 156 157 158 184 206 212 235 258 261 
5 
4 7 10 28 36 38 41 43 44 45 46 50 59 62 76 77 82 84 89 91 100 101 103 121 126 134 137 143 146 159 160 162 165 172 177 180 181 189 193 194 197 199 205 208 209 213 221 222 225 226 228 229 231 232 238 241 243 247 248 250 263 
242 
9 11 34 35 69 97 104 123 128 136 139 

15 24 32 51 54 57 68 70 79 81 83 90 94 102 108 118 119 122 140 141 151 156 157 158 163 164 170 198 200 233 235 245 254 259 260 261 
15 24 32 51 54 56 57 68 70 79 81 83 90 94 102 108 111 117 119 122 140 141 151 156 157 158 163 164 170 198 200 233 235 245 254 259 260 261 
15 24 32 51 54 56 57 68 70 79 81 83 90 94 102 108 117 118 122 140 141 151 156 157 158 163 164 170 198 200 233 235 245 254 259 260 261 
1 8 12 20 72 95 106 125 132 147 161 173 175 179 191 216 219 234 240 256 
4 10 28 31 36 38 41 43 44 45 46 50 59 62 76 77 82 84 89 91 100 103 113 126 134 146 159 172 177 189 193 194 197 205 208 209 218 221 222 226 228 229 231 238 247 263 
15 24 32 51 54 57 68 70 71 79 81 83 90 94 102 108 117 118 119 140 141 151 156 157 158 163 164 170 198 200 233 235 245 254 259 260 261 
11 35 115 128 
86 154 207 
1 8 12 20 72 95 120 132 147 161 175 179 191 219 234 240 
4 10 28 36 38 41 43 44 45 46 50 59 62 76 77 82 84 89 91 100 103 113 121 134 146 159 172 177 189 193 197 205 208 209 213 218 221 222 226 228 229 231 238 247 263 
4 76 160 174 189 226 
9 11 34 35 69 97 104 115 123 136 139 169 
4 7 38 160 180 181 187 248 
5 246 

1 8 12 20 23 31 63 72 76 82 95 106 120 125 145 147 153 161 171 173 175 179 189 191 204 216 219 232 234 240 256 
19 138 180 248 253 
4 10 28 38 41 43 44 45 46 52 59 62 76 82 84 87 89 91 100 101 103 113 121 126 138 145 160 162 165 172 177 180 181 189 193 194 205 208 209 213 221 222 226 228 229 231 232 238 243 248 250 263 
27 29 99 110 188 227 
9 11 34 69 97 104 105 115 128 139 169 
4 7 13 38 40 42 52 53 64 76 78 82 84 87 91 107 113 138 143 144 160 165 166 180 181 183 187 189 196 199 205 209 213 215 228 236 244 248 250 253 
2 4 7 13 38 40 42 43 44 45 52 53 58 59 62 64 76 78 82 87 91 100 107 133 134 137 143 144 148 160 165 180 181 183 187 189 196 199 202 205 215 226 236 244 248 250 253 
9 11 34 35 69 97 104 105 115 128 136 169 
15 24 32 51 54 57 68 70 79 81 83 90 94 102 108 117 118 119 122 141 151 156 157 158 163 164 170 198 200 233 235 245 254 259 260 261 
15 24 32 51 54 57 68 70 79 81 83 90 94 102 108 117 118 119 122 140 151 156 157 158 163 164 170 198 200 233 235 245 254 259 260 261 

7 13 40 42 52 53 64 78 84 87 107 113 137 138 144 160 165 166 180 181 187 196 199 215 248 250 253 
2 7 40 52 53 74 78 87 98 137 138 143 160 165 166 180 183 199 202 236 244 248 250 251 252 253 
1 4 7 8 12 20 21 22 38 59 60 72 76 89 95 103 106 132 134 147 160 161 171 173 175 179 180 189 191 192 204 216 218 219 226 232 234 240 248 250 256 
4 10 28 36 38 43 44 45 46 50 59 62 76 82 84 91 100 113 121 126 160 177 181 189 193 194 197 205 208 209 213 221 222 226 228 229 231 238 243 250 
1 4 8 12 20 72 76 95 106 120 125 132 145 161 173 175 179 189 191 192 204 216 218 219 232 234 240 256 
4 7 22 38 52 53 58 59 60 76 82 138 150 160 165 180 181 189 199 209 213 226 232 248 250 

4 7 22 38 52 58 76 82 148 160 180 187 189 194 199 232 248 
15 24 32 33 51 54 57 68 70 71 79 81 83 90 94 102 108 117 118 119 122 140 141 156 157 158 163 164 170 198 200 233 235 245 254 259 260 261 
18 201 
1 20 106 132 173 192 204 216 240 256 
86 124 207 
4 7 21 22 38 60 76 160 180 189 199 221 222 232 248 
15 24 32 51 54 56 57 68 70 79 81 83 90 94 102 108 111 117 118 119 122 140 141 151 157 158 163 164 170 198 200 233 235 245 254 259 260 261 
15 24 32 51 54 57 68 70 79 81 83 90 94 102 108 111 117 118 119 122 140 141 151 156 158 163 164 170 198 200 233 235 245 254 259 260 261 
15 24 32 51 54 56 57 68 70 79 81 83 90 94 102 108 111 117 118 119 122 140 141 151 156 157 163 164 170 198 200 233 235 245 254 259 260 261 
4 28 38 41 46 50 59 62 76 77 82 84 89 91 100 103 113 121 126 172 177 189 193 205 208 209 221 226 228 229 238 247 263 
4 7 10 13 21 22 23 31 36 38 40 41 42 43 44 45 46 47 49 52 53 58 59 60 63 64 73 76 78 80 82 87 91 100 107 113 127 129 134 137 138 143 144 145 146 148 150 155 165 166 171 180 181 183 187 189 194 196 197 199 203 205 208 209 213 214 215 218 221 222 226 228 229 231 232 236 238 239 244 248 250 253 
1 8 12 20 72 95 106 120 125 132 145 147 173 175 179 191 204 216 219 234 240 256 
4 10 36 38 41 44 46 59 62 76 82 84 89 91 100 103 113 134 189 194 209 221 226 228 229 231 238 
15 24 32 51 54 56 57 68 70 79 81 83 90 94 102 108 117 118 119 122 140 141 151 156 157 158 164 170 198 200 233 235 245 254 259 260 261 
15 24 32 51 54 56 57 68 70 79 81 83 90 94 102 108 117 118 119 122 140 141 151 156 157 158 163 170 198 200 233 235 245 254 259 260 261 
4 7 13 21 22 38 40 43 45 46 52 53 58 59 64 76 78 82 84 87 91 107 113 134 137 138 143 144 148 160 180 181 183 187 189 196 199 205 208 209 213 214 215 221 226 228 231 232 248 250 253 
2 74 98 137 143 144 160 180 183 202 236 244 248 250 251 252 253 
186 

9 11 34 35 69 97 104 105 128 136 139 
15 24 32 51 54 57 68 70 79 81 83 90 94 102 108 117 118 119 122 140 141 151 156 157 158 163 164 198 200 233 235 245 254 259 260 261 
4 7 21 22 23 31 38 44 49 59 60 61 63 73 76 80 82 92 132 145 160 180 181 189 209 218 221 224 226 232 248 250 
4 28 36 38 41 43 44 45 46 50 59 62 76 77 82 84 89 91 100 103 113 121 126 134 159 177 189 193 205 208 209 221 222 226 228 229 231 238 247 263 
1 8 12 20 72 95 106 120 132 145 147 153 161 175 179 191 192 204 216 219 234 240 256 
127 
1 8 12 20 72 95 120 125 132 145 147 161 173 179 191 219 234 240 

4 28 36 38 41 43 44 45 46 50 59 62 76 77 82 84 89 91 100 103 113 121 126 134 146 159 172 189 193 197 205 208 209 221 226 228 229 231 238 247 263 

1 4 8 12 20 72 76 95 106 120 125 132 145 147 161 173 175 189 191 192 204 216 218 219 232 234 240 256 
2 4 7 10 13 19 21 22 36 38 40 41 42 43 44 45 46 52 53 58 59 60 62 64 76 78 82 84 87 91 100 107 113 129 133 134 137 138 143 144 145 148 150 155 160 165 166 171 181 183 187 189 194 196 199 205 208 209 213 214 215 218 221 222 226 228 229 231 232 236 238 244 248 250 253 
4 7 10 13 36 38 40 42 43 44 45 46 52 53 58 59 62 64 76 78 82 84 87 89 91 100 103 107 113 129 134 137 138 143 146 148 160 165 171 180 187 189 194 196 199 205 208 209 215 218 221 222 226 228 229 231 232 248 250 253 

2 4 7 40 52 53 74 78 87 98 137 138 144 160 165 166 180 187 196 199 202 236 244 248 250 251 252 253 
17 33 66 85 111 206 212 258 
30 
14 65 167 217 257 
2 7 13 21 38 40 42 52 53 76 78 82 87 107 129 137 138 143 150 160 165 180 181 183 189 196 199 205 215 232 248 250 253 
27 29 99 110 135 227 
1 4 7 10 12 20 21 22 23 28 31 36 38 41 43 44 45 46 47 49 50 52 53 58 59 60 61 62 63 76 77 78 80 82 84 87 89 91 100 101 103 107 113 121 126 127 132 134 137 138 145 146 147 148 150 155 159 160 162 165 171 172 177 179 180 181 187 191 193 194 196 197 199 203 205 208 209 211 213 214 215 218 219 221 222 224 226 228 229 231 232 234 237 238 239 240 243 247 248 250 253 263 

1 8 12 20 72 76 95 106 120 125 132 145 147 161 173 175 179 189 204 216 219 234 240 256 
1 8 12 106 145 147 153 173 179 204 216 219 234 240 
4 28 36 38 41 43 44 45 46 50 59 62 76 77 82 84 89 91 100 103 113 121 126 134 146 159 172 177 189 197 205 208 209 221 226 228 229 231 238 247 263 
4 10 22 36 38 43 44 45 46 59 62 76 82 84 89 91 100 101 113 121 134 146 150 160 162 180 181 189 197 205 208 209 221 222 226 228 229 231 238 243 247 248 250 263 
55 
4 7 13 21 38 40 52 53 58 76 78 82 87 107 137 138 143 160 165 180 181 183 187 189 199 205 209 214 215 221 232 248 250 253 
4 10 28 36 38 43 44 45 46 50 59 62 76 82 84 91 100 113 121 126 146 160 177 189 193 194 205 208 209 213 221 222 226 228 229 231 238 243 250 
15 24 32 51 54 57 68 70 79 81 83 90 94 102 108 117 118 119 122 140 141 151 156 157 158 163 164 170 200 233 235 245 254 259 260 261 
2 4 7 13 22 36 38 40 42 44 52 53 58 59 64 76 78 82 87 107 113 137 138 143 144 148 150 155 160 165 180 181 183 187 189 196 209 213 215 221 226 228 232 248 250 253 
15 24 32 51 54 57 68 70 79 81 83 90 94 102 108 117 118 119 122 140 141 151 156 157 158 163 164 170 198 233 235 245 254 259 260 261 
18 152 
2 52 53 74 87 138 144 166 183 236 244 252 
4 38 44 76 100 160 189 209 213 221 223 250 
1 8 12 20 95 106 132 145 147 153 161 173 179 191 192 216 219 234 240 256 
4 7 10 22 28 36 38 40 41 43 45 46 47 49 50 52 53 59 62 76 77 82 84 87 89 91 100 101 103 107 113 121 126 134 137 138 146 159 160 165 172 177 180 181 187 189 193 194 196 197 208 209 213 214 215 221 222 223 226 228 229 231 232 238 239 241 243 247 248 250 263 
17 33 66 85 111 184 212 258 
4 86 124 154 
4 10 22 28 36 38 41 43 44 45 46 50 59 62 76 77 82 84 91 100 101 113 121 126 134 146 159 160 165 172 177 180 181 189 193 194 197 205 209 213 221 222 223 226 228 229 231 232 238 243 248 250 263 
4 7 10 22 23 28 31 36 38 41 43 44 45 46 47 49 50 58 59 62 63 76 77 78 82 84 89 91 100 101 103 107 113 121 126 134 137 146 148 159 160 162 165 171 172 177 180 181 189 193 194 196 197 199 203 205 208 213 215 218 221 222 225 226 228 229 231 232 238 241 243 247 248 250 263 

4 47 49 76 189 
17 33 66 85 111 184 206 258 
4 7 21 36 38 43 44 45 46 47 49 59 75 76 78 82 84 91 100 101 113 126 134 137 146 148 160 165 180 189 197 199 203 205 208 209 221 223 226 228 229 231 232 238 250 
4 7 22 38 40 43 45 76 78 82 101 107 160 165 180 189 196 205 215 226 232 239 248 
4 7 13 21 38 40 52 53 58 76 78 82 87 107 137 138 143 160 165 180 181 187 189 196 199 205 209 214 221 232 248 250 253 
1 12 20 106 120 132 145 147 153 161 173 179 191 192 204 219 234 240 
14 39 65 109 186 257 
4 7 10 21 22 23 25 31 38 41 44 46 47 49 59 61 63 73 76 80 92 100 121 126 145 147 160 171 179 180 181 189 209 219 220 221 224 226 228 231 232 234 250 255 
1 4 8 12 20 72 76 95 106 120 125 132 145 147 161 173 175 179 189 191 192 204 216 218 232 234 240 256 
23 25 31 61 63 73 80 92 218 224 
4 7 10 22 28 36 38 41 43 44 45 46 49 50 59 62 76 77 82 84 89 91 100 101 103 107 113 121 126 134 146 155 159 160 162 165 171 172 177 180 181 189 193 194 196 197 199 203 205 208 209 213 215 218 222 226 228 229 231 232 238 241 243 247 248 250 263 
4 7 10 22 36 38 41 43 44 45 46 50 59 62 76 82 84 91 100 101 113 121 126 134 146 155 160 172 180 181 189 194 197 205 208 209 221 226 228 229 231 232 238 241 243 248 250 
4 38 43 45 49 59 82 203 205 208 213 226 
22 23 25 31 38 44 49 61 63 73 76 80 92 171 189 218 220 255 
4 36 59 100 113 209 226 228 249 
4 7 10 21 22 28 36 38 41 43 44 45 46 47 49 50 52 59 60 62 76 77 78 82 84 87 89 91 100 101 103 113 121 126 127 134 138 145 146 148 159 160 162 165 171 172 177 180 181 189 193 194 197 199 205 208 209 213 214 218 221 222 223 225 228 229 231 232 238 243 247 248 250 263 
27 29 99 110 135 188 
4 7 10 21 22 28 36 38 41 43 44 45 46 50 59 60 62 76 77 82 84 89 91 100 101 103 113 121 126 134 137 146 159 160 162 165 172 177 180 181 189 193 194 197 199 205 208 209 213 218 221 222 225 226 229 231 238 243 247 248 250 263 
4 10 28 36 38 41 43 44 45 46 50 59 62 76 77 82 84 89 91 100 101 103 113 121 126 134 146 159 160 162 172 177 180 181 189 193 194 197 205 208 209 213 221 222 226 228 231 232 238 243 247 248 250 253 263 
96 
4 7 10 28 36 38 41 43 44 45 46 50 59 62 76 77 82 84 89 91 100 101 103 113 121 126 134 146 160 162 165 172 177 180 181 189 193 194 197 205 208 209 213 218 221 222 226 228 229 237 238 243 247 248 263 
1 4 7 12 13 21 23 31 38 40 43 44 45 46 49 59 63 76 78 82 84 91 92 95 107 113 132 134 145 147 148 150 155 160 165 171 179 180 181 187 189 196 199 205 208 209 213 214 215 218 219 221 222 226 229 234 240 248 250 253 
15 24 32 51 54 56 57 68 70 79 81 83 90 94 102 108 117 118 119 122 140 141 151 156 157 158 163 164 170 198 200 235 245 254 259 260 261 
1 4 8 12 20 38 72 76 95 106 120 125 132 145 147 161 173 175 179 189 191 192 204 216 218 219 232 240 256 
15 24 32 51 54 56 57 68 70 79 81 83 90 94 102 108 111 117 118 119 122 140 141 151 156 157 158 163 164 170 198 200 233 245 254 259 260 261 
2 40 42 52 53 74 87 137 138 144 160 166 180 183 202 244 248 250 251 252 253 
5 76 82 189 231 246 
4 10 28 36 38 41 43 44 45 46 50 59 62 76 77 82 84 89 91 100 101 103 113 121 126 134 146 159 160 162 172 177 180 189 193 194 197 205 208 209 213 221 222 226 228 229 231 243 247 248 249 263 
4 43 45 76 160 189 205 214 
1 4 8 12 20 38 72 76 95 106 120 125 132 145 147 153 161 173 175 179 189 191 192 204 216 219 232 234 256 
4 38 43 45 67 82 84 88 113 205 209 221 222 
114 
4 10 36 38 43 44 45 46 59 62 76 82 84 91 100 113 134 146 189 194 197 205 208 209 221 222 226 228 229 231 238 
2 4 7 40 52 53 74 137 138 144 160 166 180 183 202 236 248 250 251 252 253 
15 24 32 51 54 57 68 70 71 79 81 83 90 94 102 108 117 118 119 122 140 141 151 156 157 158 163 164 170 198 200 233 235 254 259 260 261 
5 130 237 
4 28 36 38 41 43 45 46 50 59 62 76 77 82 84 89 91 100 103 113 121 126 159 172 177 189 193 194 205 209 221 226 228 229 231 238 263 
2 4 7 10 13 19 22 36 38 40 41 42 43 44 45 46 52 53 58 59 60 62 64 76 78 82 84 87 91 100 107 113 129 133 134 137 138 143 144 145 148 150 155 160 165 166 171 180 181 183 187 189 194 196 199 205 208 209 214 215 221 222 226 228 229 231 232 236 238 244 250 253 
84 225 238 
4 7 10 13 21 22 36 38 40 41 42 43 44 45 46 47 52 53 58 59 62 64 76 78 82 87 89 91 100 103 107 113 134 137 138 143 144 145 146 148 160 165 166 171 180 181 183 187 189 194 196 197 199 203 205 208 209 213 215 218 221 222 226 228 229 232 236 244 248 253 263 
2 74 144 166 183 236 244 
98 144 166 183 202 236 244 
2 4 7 13 38 40 42 52 53 58 64 74 76 78 87 107 133 137 138 143 144 160 165 166 180 181 183 187 189 196 199 215 229 232 236 244 248 250 
15 24 32 51 54 56 57 68 70 79 81 83 90 94 102 108 117 118 119 122 140 141 151 156 157 158 163 164 170 198 200 233 235 245 259 260 261 
31 61 63 80 92 218 224 
1 8 12 20 72 95 106 120 132 145 147 153 161 173 179 191 204 219 234 240 
14 39 65 109 186 217 
17 33 66 85 111 184 206 212 
15 24 32 51 54 56 57 68 70 79 81 83 90 94 102 108 117 118 119 122 140 141 151 156 157 158 163 164 170 198 200 233 235 245 254 260 261 
15 24 32 51 54 56 57 68 70 79 81 83 90 94 102 108 117 118 119 122 140 141 151 156 157 158 163 164 170 198 200 233 235 245 254 259 261 
15 24 32 51 54 56 57 68 70 79 81 83 90 94 102 108 111 117 118 119 122 140 141 151 156 157 158 163 164 170 198 200 233 235 245 254 259 260 

4 28 38 41 44 46 50 59 62 76 77 82 84 89 91 100 101 103 113 121 126 134 159 172 177 189 193 194 205 208 209 221 226 228 229 231 238 247 250 
